c colouring generated by benchmark framework
p edge 196 4186
v 1 16
v 2 18
v 3 9
v 4 22
v 5 7
v 6 12
v 7 10
v 8 8
v 9 15
v 10 4
v 11 5
v 12 6
v 13 14
v 14 19
v 15 12
v 16 5
v 17 13
v 18 11
v 19 3
v 20 9
v 21 4
v 22 7
v 23 6
v 24 1
v 25 22
v 26 8
v 27 16
v 28 10
v 29 1
v 30 2
v 31 4
v 32 20
v 33 0
v 34 10
v 35 21
v 36 13
v 37 8
v 38 5
v 39 3
v 40 18
v 41 12
v 42 9
v 43 6
v 44 15
v 45 16
v 46 3
v 47 23
v 48 4
v 49 9
v 50 18
v 51 11
v 52 2
v 53 1
v 54 20
v 55 10
v 56 13
v 57 8
v 58 4
v 59 19
v 60 1
v 61 2
v 62 7
v 63 22
v 64 15
v 65 5
v 66 23
v 67 6
v 68 0
v 69 9
v 70 20
v 71 9
v 72 6
v 73 20
v 74 5
v 75 11
v 76 0
v 77 16
v 78 1
v 79 2
v 80 3
v 81 24
v 82 22
v 83 4
v 84 7
v 85 7
v 86 17
v 87 10
v 88 0
v 89 16
v 90 23
v 91 13
v 92 4
v 93 14
v 94 19
v 95 8
v 96 1
v 97 11
v 98 3
v 99 15
v 100 11
v 101 3
v 102 19
v 103 1
v 104 6
v 105 0
v 106 22
v 107 12
v 108 7
v 109 18
v 110 2
v 111 8
v 112 4
v 113 14
v 114 8
v 115 24
v 116 2
v 117 12
v 118 3
v 119 7
v 120 21
v 121 1
v 122 0
v 123 17
v 124 4
v 125 6
v 126 16
v 127 23
v 128 9
v 129 7
v 130 4
v 131 20
v 132 1
v 133 5
v 134 0
v 135 3
v 136 6
v 137 2
v 138 10
v 139 21
v 140 11
v 141 21
v 142 13
v 143 0
v 144 17
v 145 19
v 146 8
v 147 2
v 148 14
v 149 4
v 150 20
v 151 7
v 152 3
v 153 5
v 154 6
v 155 0
v 156 10
v 157 5
v 158 16
v 159 6
v 160 18
v 161 12
v 162 3
v 163 7
v 164 14
v 165 4
v 166 17
v 167 1
v 168 2
v 169 11
v 170 12
v 171 8
v 172 7
v 173 24
v 174 2
v 175 20
v 176 16
v 177 0
v 178 9
v 179 10
v 180 5
v 181 19
v 182 21
v 183 13
v 184 0
v 185 14
v 186 6
v 187 15
v 188 21
v 189 1
v 190 2
v 191 10
v 192 24
v 193 11
v 194 9
v 195 7
v 196 8
